Cu  H 
 1.0000000000000000
     2.5738686835190334    0.0000000000000000    0.0000000000000000
     1.2869343417595167    2.2290356659326918    0.0000000000000000
     0.0000000000000000    0.0000000000000000   18.3046649395507117
  Cu   H
   4   1
Selective
Direct
  0.0000000000000000  0.0000000000000000  0.3277852951591513 F F F
  0.3333333333333333  0.3333333333333333  0.4425950983863838 F F F
  0.6666666666666667  0.6666666666666667  0.5574049016136162 F F F
  0.0000000000000000  0.0000000000000000  0.6722147048408487 F F F
  0.3333333333333333  0.3333333333333333  0.7268455873673738 T T T
