 SiO2                                   
   1.00000000000000     
     4.9138000000000002    0.0000000000000000    0.0000000000000000
    -2.4569000000000001    4.2554756291159750    0.0000000000000000
     0.0000000000000000    0.0000000000000000    5.4051999999999998
   Si   O 
     3     6
Direct
  0.4697999999999993  0.0000000000000000  0.6666666666666643
  0.5302000000000007  0.5302000000000007  0.0000000000000000
  0.0000000000000000  0.4697999999999993  0.3333333333333357
  0.4144999999999968  0.2661999999999978  0.7856000000000023
  0.5855000000000032  0.8517000000000010  0.8810666666666691
  0.1482999999999990  0.7338000000000022  0.5477333333333334
  0.2661999999999978  0.4144999999999968  0.2143999999999977
  0.8517000000000010  0.5855000000000032  0.1189333333333309
  0.7338000000000022  0.1482999999999990  0.4522666666666666
 
  0.00000000E+00  0.00000000E+00  0.00000000E+00
  0.00000000E+00  0.00000000E+00  0.00000000E+00
  0.00000000E+00  0.00000000E+00  0.00000000E+00
  0.00000000E+00  0.00000000E+00  0.00000000E+00
  0.00000000E+00  0.00000000E+00  0.00000000E+00
  0.00000000E+00  0.00000000E+00  0.00000000E+00
  0.00000000E+00  0.00000000E+00  0.00000000E+00
  0.00000000E+00  0.00000000E+00  0.00000000E+00
  0.00000000E+00  0.00000000E+00  0.00000000E+00
