 SiO2 
 1.0000000000000000
     4.9138000000000000    0.0000000000000000    0.0000000000000000
    -2.4569000000000000    4.2554756291159750    0.0000000000000000
     0.0000000000000000    0.0000000000000000    5.4052000000000000
   Si  O
   3   6
Direct
  0.4698000000000000  0.0000000000000000  0.6666666666666667
  0.5302000000000000  0.5302000000000000  0.0000000000000000
  0.0000000000000000  0.4698000000000000  0.3333333333333333
  0.4145000000000000  0.2662000000000000  0.7856000000000000
  0.5855000000000000  0.8517000000000000  0.8810666666666667
  0.1483000000000000  0.7338000000000000  0.5477333333333333
  0.2662000000000000  0.4145000000000000  0.2144000000000000
  0.8517000000000000  0.5855000000000000  0.1189333333333333
  0.7338000000000000  0.1483000000000000  0.4522666666666667
