Cu                                      
   1.00000000000000     
     2.5738686835190334    0.0000000000000000    0.0000000000000000
     1.2869343417595167    2.2290356659326918    0.0000000000000000
     0.0000000000000000    0.0000000000000000   18.3046649395507117
   Cu
     4
Direct
  0.0000000000000000  0.0000000000000000  0.3310925452689989
  0.3333333333333357  0.3333333333333357  0.4435999758767016
  0.6666666666666643  0.6666666666666643  0.5564000241232984
 -0.0000000000000000 -0.0000000000000000  0.6689074547310011
 
  0.00000000E+00  0.00000000E+00  0.00000000E+00
  0.00000000E+00  0.00000000E+00  0.00000000E+00
  0.00000000E+00  0.00000000E+00  0.00000000E+00
  0.00000000E+00  0.00000000E+00  0.00000000E+00
