k-density: 4.0
0
Gamma
 10 10 2
 0  0  0
